p tw 67 1977
0 1
0 2
0 3
0 4
0 5
0 6
0 7
0 8
0 9
0 10
0 11
0 12
0 13
0 15
0 25
0 38
0 46
0 49
0 52
0 53
0 54
0 55
0 56
0 57
0 58
0 19
0 29
0 34
0 37
0 43
0 47
0 48
0 59
0 23
0 24
0 27
0 33
0 51
0 60
0 61
0 62
0 16
0 17
0 22
0 39
0 41
0 45
0 63
0 21
0 30
0 35
0 64
0 26
0 31
0 32
0 40
0 66
0 44
0 50
0 65
0 14
0 28
0 18
1 2
1 3
1 4
1 5
1 6
1 7
1 8
1 9
1 10
1 11
1 12
1 13
1 14
1 15
1 16
1 17
1 18
1 19
1 20
1 21
1 22
1 23
1 24
1 25
1 31
1 32
1 34
1 38
1 46
1 47
1 48
1 49
1 30
1 35
1 39
1 50
1 51
1 26
1 43
1 45
1 61
1 63
1 53
1 56
1 57
1 60
1 64
1 44
1 54
1 59
1 28
1 37
1 40
1 58
1 33
1 41
1 29
1 52
1 62
2 3
2 4
2 5
2 6
2 7
2 8
2 9
2 10
2 11
2 12
2 13
2 23
2 25
2 26
2 27
2 28
2 29
2 30
2 31
2 32
2 33
2 15
2 17
2 34
2 35
2 36
2 37
2 38
2 39
2 46
2 49
2 52
2 53
2 54
2 55
2 56
2 57
2 58
2 24
2 43
2 51
2 60
2 61
2 62
2 42
2 48
2 14
2 16
2 21
2 22
2 59
2 65
2 18
2 20
2 45
2 47
2 64
2 19
2 40
2 50
2 63
2 66
2 44
3 4
3 5
3 6
3 7
3 8
3 9
3 10
3 11
3 12
3 13
3 14
3 15
3 16
3 17
3 18
3 19
3 20
3 21
3 22
3 23
3 24
3 25
3 38
3 46
3 49
3 52
3 53
3 54
3 55
3 56
3 57
3 58
3 27
3 33
3 43
3 51
3 60
3 61
3 62
3 26
3 29
3 45
3 48
3 50
3 64
3 30
3 32
3 40
3 42
3 65
3 44
3 66
3 31
3 37
3 41
3 47
3 63
3 28
3 34
3 59
3 35
4 5
4 6
4 7
4 8
4 9
4 10
4 11
4 12
4 13
4 15
4 16
4 24
4 25
4 31
4 32
4 34
4 38
4 46
4 47
4 48
4 49
4 21
4 30
4 33
4 35
4 45
4 54
4 63
4 64
4 14
4 17
4 18
4 23
4 26
4 29
4 50
4 58
4 19
4 22
4 27
4 28
4 39
4 42
4 43
4 36
4 41
4 44
4 52
4 53
4 61
4 65
4 37
4 55
4 40
4 57
4 62
5 6
5 7
5 8
5 9
5 10
5 11
5 12
5 13
5 15
5 17
5 25
5 33
5 34
5 35
5 36
5 37
5 38
5 39
5 19
5 21
5 22
5 30
5 32
5 43
5 49
5 52
5 65
5 29
5 42
5 44
5 46
5 50
5 56
5 58
5 62
5 66
5 14
5 23
5 45
5 47
5 55
5 60
5 63
5 53
5 27
5 28
5 64
5 18
5 41
5 57
6 7
6 8
6 9
6 10
6 11
6 12
6 13
6 23
6 25
6 26
6 27
6 28
6 29
6 30
6 31
6 32
6 33
6 16
6 17
6 22
6 34
6 37
6 38
6 39
6 41
6 45
6 46
6 49
6 62
6 63
6 21
6 35
6 48
6 54
6 64
6 19
6 42
6 43
6 47
6 44
6 50
6 56
6 58
6 65
6 66
6 24
6 52
6 53
6 18
6 57
6 60
7 8
7 9
7 10
7 11
7 12
7 13
7 23
7 24
7 32
7 33
7 40
7 41
7 42
7 43
7 44
7 45
7 14
7 15
7 30
7 34
7 35
7 39
7 49
7 50
7 51
7 17
7 18
7 19
7 25
7 26
7 31
7 47
7 48
7 61
7 63
7 36
7 38
7 52
7 53
7 65
7 37
7 62
7 64
7 66
7 21
7 56
7 55
7 60
7 22
7 20
7 57
7 58
7 16
7 29
8 9
8 10
8 11
8 12
8 13
8 15
8 17
8 25
8 33
8 34
8 35
8 36
8 37
8 38
8 39
8 16
8 24
8 31
8 32
8 46
8 47
8 48
8 49
8 19
8 29
8 43
8 53
8 57
8 58
8 59
8 22
8 26
8 27
8 28
8 42
8 45
8 44
8 50
8 56
8 62
8 65
8 66
8 20
8 23
8 41
8 40
8 63
8 14
8 55
8 61
8 18
8 51
8 60
8 52
9 10
9 11
9 12
9 13
9 23
9 25
9 26
9 27
9 28
9 29
9 30
9 31
9 32
9 33
9 15
9 17
9 34
9 35
9 36
9 37
9 38
9 39
9 46
9 49
9 52
9 53
9 54
9 55
9 56
9 57
9 58
9 21
9 45
9 48
9 63
9 64
9 19
9 50
9 59
9 61
9 62
9 66
9 14
9 16
9 18
9 20
9 41
9 44
9 47
9 65
9 24
9 42
9 22
9 43
9 51
10 11
10 12
10 13
10 23
10 24
10 32
10 33
10 40
10 41
10 42
10 43
10 44
10 45
10 14
10 15
10 30
10 34
10 35
10 39
10 49
10 50
10 51
10 17
10 18
10 26
10 29
10 38
10 48
10 54
10 58
10 64
10 16
10 19
10 20
10 31
10 53
10 25
10 36
10 47
10 52
10 61
10 65
10 21
10 37
10 56
10 22
10 55
10 63
10 28
10 59
10 57
10 62
10 60
11 12
11 13
11 23
11 24
11 27
11 33
11 43
11 51
11 52
11 54
11 60
11 61
11 62
11 14
11 17
11 18
11 26
11 29
11 38
11 45
11 48
11 50
11 58
11 64
11 15
11 19
11 21
11 22
11 30
11 32
11 39
11 49
11 65
11 37
11 55
11 57
11 59
11 66
11 20
11 41
11 47
12 13
12 23
12 25
12 26
12 27
12 28
12 29
12 30
12 31
12 32
12 33
12 19
12 34
12 37
12 43
12 46
12 47
12 48
12 53
12 57
12 58
12 59
12 15
12 36
12 42
12 51
12 52
12 60
12 61
12 16
12 22
12 40
12 50
12 65
12 38
12 41
12 44
12 18
12 24
12 39
12 56
12 64
12 17
12 20
12 49
12 14
12 21
12 35
12 45
12 55
12 63
12 62
13 14
13 15
13 23
13 30
13 32
13 34
13 35
13 39
13 49
13 50
13 51
13 24
13 27
13 33
13 43
13 52
13 54
13 60
13 61
13 62
13 17
13 18
13 19
13 25
13 26
13 31
13 45
13 47
13 48
13 63
13 36
13 42
13 46
13 20
13 53
13 55
13 64
13 22
13 56
13 57
13 16
13 28
13 37
13 40
13 58
13 21
13 41
13 59
13 65
13 44
14 15
14 16
14 17
14 18
14 19
14 20
14 21
14 22
14 23
14 24
14 30
14 32
14 34
14 35
14 39
14 49
14 50
14 51
14 27
14 29
14 31
14 33
14 48
14 52
14 53
14 59
14 65
14 42
14 45
14 47
14 64
14 26
14 38
14 54
14 58
14 55
14 61
14 63
14 44
14 60
14 28
14 40
14 56
14 57
14 62
14 37
14 43
15 16
15 17
15 18
15 19
15 20
15 21
15 22
15 23
15 24
15 25
15 33
15 34
15 35
15 36
15 37
15 38
15 39
15 31
15 32
15 46
15 47
15 48
15 49
15 30
15 50
15 51
15 52
15 53
15 54
15 55
15 56
15 57
15 58
15 29
15 42
15 43
15 45
15 60
15 61
15 27
15 59
15 65
15 44
15 63
15 41
15 62
16 17
16 18
16 19
16 20
16 21
16 22
16 23
16 24
16 25
16 31
16 32
16 34
16 38
16 46
16 47
16 48
16 49
16 37
16 39
16 41
16 45
16 62
16 63
16 27
16 29
16 33
16 52
16 53
16 59
16 65
16 26
16 30
16 40
16 42
16 50
16 61
16 35
16 44
16 54
16 28
16 58
16 60
16 51
16 57
17 18
17 19
17 20
17 21
17 22
17 23
17 24
17 25
17 33
17 34
17 35
17 36
17 37
17 38
17 39
17 29
17 30
17 32
17 42
17 43
17 45
17 50
17 54
17 55
17 56
17 41
17 46
17 49
17 62
17 63
17 26
17 31
17 47
17 48
17 61
17 27
17 64
17 58
17 53
17 57
17 52
17 44
17 28
17 40
17 59
18 19
18 20
18 21
18 22
18 23
18 24
18 25
18 26
18 31
18 43
18 45
18 47
18 48
18 61
18 63
18 27
18 29
18 30
18 32
18 34
18 42
18 64
18 38
18 50
18 54
18 58
18 35
18 53
18 39
18 56
18 57
18 60
18 33
18 44
18 55
18 41
18 49
18 40
18 51
18 59
18 65
18 46
18 52
18 62
19 20
19 21
19 22
19 23
19 24
19 29
19 34
19 37
19 43
19 46
19 47
19 48
19 53
19 57
19 58
19 59
19 25
19 26
19 31
19 45
19 61
19 63
19 30
19 32
19 40
19 42
19 50
19 65
19 27
19 28
19 39
19 49
19 52
19 33
19 55
19 62
19 66
19 35
19 51
19 41
20 21
20 22
20 23
20 24
20 27
20 29
20 30
20 32
20 34
20 42
20 45
20 47
20 48
20 64
20 26
20 52
20 53
20 54
20 55
20 61
20 63
20 31
20 35
20 38
20 39
20 44
20 59
20 37
20 41
20 49
20 50
20 57
20 25
20 43
20 51
20 58
20 62
21 22
21 23
21 24
21 25
21 30
21 33
21 35
21 45
21 48
21 54
21 63
21 64
21 32
21 37
21 41
21 42
21 43
21 58
21 61
21 62
21 27
21 29
21 31
21 39
21 52
21 53
21 59
21 65
21 49
21 47
21 50
21 56
21 55
21 60
21 28
21 34
21 38
21 57
22 23
22 24
22 34
22 37
22 38
22 39
22 41
22 45
22 46
22 49
22 62
22 63
22 27
22 29
22 31
22 33
22 48
22 52
22 53
22 59
22 65
22 25
22 26
22 30
22 32
22 40
22 42
22 50
22 61
22 28
22 43
22 47
22 56
22 57
22 60
22 64
22 44
22 54
22 58
22 55
23 24
23 25
23 26
23 27
23 28
23 29
23 30
23 31
23 32
23 33
23 40
23 41
23 42
23 43
23 44
23 45
23 34
23 35
23 39
23 49
23 50
23 51
23 52
23 54
23 60
23 61
23 62
23 36
23 46
23 48
23 47
23 64
23 38
23 58
23 56
23 57
23 37
23 55
23 63
24 32
24 33
24 40
24 41
24 42
24 43
24 44
24 45
24 25
24 31
24 34
24 38
24 46
24 47
24 48
24 49
24 29
24 30
24 37
24 50
24 54
24 55
24 56
24 27
24 51
24 52
24 60
24 61
24 62
24 58
24 63
24 64
24 26
24 53
24 39
24 57
24 59
24 28
24 65
24 35
25 26
25 27
25 28
25 29
25 30
25 31
25 32
25 33
25 34
25 35
25 36
25 37
25 38
25 39
25 46
25 47
25 48
25 49
25 52
25 53
25 54
25 55
25 56
25 57
25 58
25 45
25 63
25 64
25 43
25 61
25 42
25 51
25 60
25 40
25 50
25 65
25 41
25 44
25 62
26 27
26 28
26 29
26 30
26 31
26 32
26 33
26 43
26 45
26 47
26 48
26 61
26 63
26 38
26 50
26 54
26 58
26 64
26 40
26 42
26 65
26 39
26 34
26 52
26 53
26 55
26 35
26 37
26 62
26 66
26 41
26 49
26 57
26 46
26 60
26 51
27 28
27 29
27 30
27 31
27 32
27 33
27 43
27 51
27 52
27 54
27 60
27 61
27 62
27 39
27 48
27 53
27 59
27 65
27 34
27 42
27 45
27 47
27 64
27 37
27 41
27 49
27 50
27 57
27 38
27 63
28 29
28 30
28 31
28 32
28 33
28 39
28 42
28 43
28 45
28 47
28 37
28 40
28 46
28 58
28 60
28 62
28 34
28 52
28 56
28 59
28 64
28 38
28 53
28 63
29 30
29 31
29 32
29 33
29 34
29 37
29 43
29 46
29 47
29 48
29 53
29 57
29 58
29 59
29 38
29 42
29 45
29 50
29 54
29 55
29 56
29 39
29 52
29 65
29 64
29 44
29 62
29 66
29 40
29 63
30 31
30 32
30 33
30 34
30 35
30 39
30 49
30 50
30 51
30 37
30 38
30 42
30 43
30 45
30 54
30 55
30 56
30 48
30 63
30 64
30 41
30 58
30 61
30 62
30 47
30 40
30 65
30 52
30 57
30 59
30 66
31 32
31 33
31 34
31 38
31 46
31 47
31 48
31 49
31 43
31 45
31 61
31 63
31 39
31 52
31 53
31 59
31 65
31 35
31 37
31 40
31 62
31 64
31 66
31 58
31 60
31 42
31 44
31 50
31 54
31 55
31 57
31 51
32 33
32 40
32 41
32 42
32 43
32 44
32 45
32 34
32 38
32 46
32 47
32 48
32 49
32 35
32 39
32 50
32 51
32 37
32 54
32 55
32 56
32 58
32 61
32 62
32 63
32 64
32 65
32 52
32 53
32 36
32 66
32 57
32 60
33 34
33 35
33 36
33 37
33 38
33 39
33 40
33 41
33 42
33 43
33 44
33 45
33 51
33 52
33 54
33 60
33 61
33 62
33 48
33 63
33 64
33 58
33 53
33 59
33 65
33 49
33 50
33 55
33 57
33 66
33 47
33 46
34 35
34 36
34 37
34 38
34 39
34 46
34 47
34 48
34 49
34 50
34 51
34 43
34 53
34 57
34 58
34 59
34 41
34 45
34 62
34 63
34 42
34 64
34 52
34 54
34 55
34 61
34 44
34 40
34 56
34 65
35 36
35 37
35 38
35 39
35 49
35 50
35 51
35 45
35 48
35 54
35 63
35 64
35 53
35 47
35 55
35 60
35 44
35 46
35 58
35 43
35 57
35 40
35 42
35 61
35 62
35 41
36 37
36 38
36 39
36 42
36 43
36 46
36 48
36 51
36 52
36 60
36 61
36 41
36 44
36 47
36 53
36 65
36 49
36 58
36 63
37 38
37 39
37 43
37 46
37 47
37 48
37 53
37 57
37 58
37 59
37 42
37 45
37 50
37 54
37 55
37 56
37 41
37 49
37 62
37 63
37 61
37 64
37 66
37 40
37 60
37 52
37 44
37 65
38 39
38 46
38 47
38 48
38 49
38 52
38 53
38 54
38 55
38 56
38 57
38 58
38 42
38 43
38 45
38 50
38 41
38 62
38 63
38 64
38 44
38 61
38 65
38 59
38 60
39 49
39 50
39 51
39 41
39 45
39 46
39 62
39 63
39 48
39 52
39 53
39 59
39 65
39 42
39 43
39 47
39 56
39 57
39 60
39 64
39 44
39 54
39 55
39 58
40 41
40 42
40 43
40 44
40 45
40 50
40 61
40 65
40 53
40 62
40 64
40 66
40 46
40 58
40 60
40 52
40 56
40 59
40 55
40 57
40 48
40 51
41 42
41 43
41 44
41 45
41 46
41 49
41 62
41 63
41 48
41 58
41 61
41 64
41 47
41 52
41 53
41 65
41 50
41 57
41 56
41 60
41 59
42 43
42 44
42 45
42 50
42 54
42 55
42 56
42 48
42 58
42 61
42 62
42 63
42 64
42 46
42 51
42 52
42 60
42 47
42 65
42 66
42 53
42 57
42 49
43 44
43 45
43 46
43 47
43 48
43 53
43 57
43 58
43 59
43 50
43 54
43 55
43 56
43 51
43 52
43 60
43 61
43 62
43 63
43 64
43 49
43 65
43 66
44 45
44 46
44 50
44 56
44 58
44 62
44 65
44 66
44 47
44 48
44 52
44 53
44 61
44 54
44 59
44 63
44 49
44 55
44 57
44 51
45 50
45 54
45 55
45 56
45 46
45 49
45 62
45 63
45 48
45 64
45 47
45 61
45 58
45 57
45 59
45 66
45 60
45 53
45 65
46 47
46 48
46 49
46 52
46 53
46 54
46 55
46 56
46 57
46 58
46 59
46 62
46 63
46 51
46 60
46 61
46 50
46 65
46 66
47 48
47 49
47 53
47 57
47 58
47 59
47 61
47 63
47 64
47 52
47 65
47 50
47 56
47 55
47 60
48 49
48 53
48 57
48 58
48 59
48 54
48 63
48 64
48 61
48 62
48 51
48 52
48 60
48 65
48 50
48 55
48 56
49 50
49 51
49 52
49 53
49 54
49 55
49 56
49 57
49 58
49 62
49 63
49 65
49 59
49 61
49 66
49 60
50 51
50 54
50 55
50 56
50 58
50 64
50 61
50 65
50 62
50 66
50 57
50 59
50 60
50 52
50 53
50 63
51 52
51 54
51 60
51 61
51 62
51 57
51 58
51 53
51 59
51 65
52 53
52 54
52 55
52 56
52 57
52 58
52 60
52 61
52 62
52 59
52 65
52 63
52 64
53 54
53 55
53 56
53 57
53 58
53 59
53 65
53 61
53 63
53 64
53 62
53 66
53 60
54 55
54 56
54 57
54 58
54 60
54 61
54 62
54 63
54 64
54 59
55 56
55 57
55 58
55 61
55 63
55 64
55 59
55 62
55 66
55 60
55 65
56 57
56 58
56 62
56 65
56 66
56 60
56 64
56 59
57 58
57 59
57 61
57 62
57 66
57 60
57 64
58 59
58 61
58 62
58 63
58 64
58 65
58 66
58 60
59 65
59 61
59 62
59 66
59 63
59 64
59 60
60 61
60 62
60 64
60 63
60 65
61 62
61 63
61 64
61 65
61 66
62 63
62 64
62 65
62 66
63 64
63 65
64 66
65 66
